w = 39;
n = 29;
measures = [|3, 3,
|3, 4,
|3, 5,
|3, 6,
|3, 7,
|3, 8,
|3, 9,
|3, 10,
|3, 11,
|3, 15,
|4, 3,
|4, 4,
|4, 5,
|4, 6,
|4, 8,
|4, 9,
|4, 12,
|4, 15,
|4, 16,
|5, 3,
|5, 4,
|5, 5,
|5, 6,
|5, 8,
|5, 10,
|5, 11,
|5, 13,
|5, 18,
|15, 39,
|];
initial_x = [0, 3, 6, 9, 12, 15, 18, 21, 24, 27, 30, 34, 0, 4, 8, 12, 16, 20, 24, 28, 33, 0, 5, 10, 15, 20, 25, 30, 0];
initial_y = [0, 0, 0, 0, 0, 0, 0, 0, 0, 0, 0, 0, 15, 15, 15, 15, 15, 15, 15, 15, 15, 31, 31, 31, 31, 31, 31, 31, 49];